DIMACS2
80 275 620 340 432 157 549 180 472 621 15 449 608 393 512 589 252 420 625 158 182 111 265 423 593 555 259 101 417 358 75 208 7 309 118 402 485 107 331 554 92 558 142 602 60 476 51 5 93 85 282 65 498 464 199 544 276 343 98 406 164 311 289 527 240 586 266 323 521 38 153 470 631 438 197 255 128 478 25 553 292
p edge 640 1526
e 0 63 1.0
e 0 161 1.0
e 1 381 1.0
e 1 585 1.0
e 2 81 1.0
e 2 297 2.0
e 3 565 1.0
e 3 259 22.0
e 4 233 1.0
e 4 385 1.0
e 5 338 21.0
e 5 537 17.0
e 5 464 11.0
e 5 240 1.0
e 5 197 2.0
e 5 25 17.0
e 5 281 29.0
e 5 38 6.0
e 5 15 15.0
e 6 618 1.0
e 6 562 2.0
e 7 296 39.0
e 7 576 45.0
e 7 512 11.0
e 7 128 37.0
e 7 255 36.0
e 7 208 22.0
e 7 85 22.0
e 7 393 38.0
e 7 75 29.0
e 8 451 2.0
e 8 126 2.0
e 9 601 2.0
e 9 182 27.0
e 10 16 3.0
e 10 631 14.0
e 11 514 1.0
e 11 176 2.0
e 12 299 2.0
e 12 94 2.0
e 13 373 1.0
e 13 394 1.0
e 14 167 2.0
e 14 359 2.0
e 15 66 1.0
e 15 181 32.0
e 15 182 39.0
e 15 38 15.0
e 15 393 29.0
e 15 602 37.0
e 16 280 1.0
e 16 333 1.0
e 17 565 1.0
e 17 367 1.0
e 18 492 2.0
e 18 60 12.0
e 19 419 1.0
e 19 539 2.0
e 20 337 1.0
e 20 404 1.0
e 21 369 1.0
e 21 352 1.0
e 22 637 1.0
e 22 210 1.0
e 23 445 1.0
e 23 211 1.0
e 24 54 1.0
e 24 568 1.0
e 25 624 4.0
e 25 202 36.0
e 25 323 17.0
e 25 602 23.0
e 25 470 19.0
e 25 331 31.0
e 25 252 25.0
e 25 309 6.0
e 26 553 8.0
e 26 436 1.0
e 27 415 1.0
e 27 426 1.0
e 28 631 4.0
e 28 60 7.0
e 29 364 1.0
e 29 303 1.0
e 30 473 1.0
e 30 634 1.0
e 31 347 1.0
e 31 35 2.0
e 32 167 2.0
e 32 573 2.0
e 33 291 1.0
e 33 522 1.0
e 34 514 1.0
e 34 370 1.0
e 35 10 1.0
e 35 231 1.0
e 36 81 1.0
e 36 439 1.0
e 37 291 1.0
e 37 393 19.0
e 38 567 23.0
e 38 189 39.0
e 39 629 2.0
e 39 246 2.0
e 40 517 1.0
e 40 425 1.0
e 41 102 1.0
e 41 417 40.0
e 42 55 1.0
e 42 511 1.0
e 43 446 2.0
e 43 529 2.0
e 44 38 18.0
e 44 134 1.0
e 45 207 1.0
e 45 508 1.0
e 46 636 3.0
e 46 192 1.0
e 47 553 45.0
e 47 477 5.0
e 48 489 1.0
e 48 51 45.0
e 49 429 1.0
e 49 407 1.0
e 50 13 1.0
e 50 525 1.0
e 51 169 30.0
e 51 99 37.0
e 51 92 34.0
e 51 393 9.0
e 51 586 5.0
e 51 527 17.0
e 51 180 3.0
e 52 586 44.0
e 52 111 35.0
e 53 602 45.0
e 53 192 2.0
e 54 253 1.0
e 54 556 1.0
e 55 29 1.0
e 55 265 32.0
e 56 405 1.0
e 56 6 1.0
e 57 353 1.0
e 57 588 1.0
e 58 483 2.0
e 58 198 2.0
e 59 599 1.0
e 59 126 2.0
e 60 384 27.0
e 60 211 8.0
e 60 417 46.0
e 60 331 2.0
e 60 197 3.0
e 60 199 12.0
e 61 297 1.0
e 61 145 1.0
e 62 429 1.0
e 62 385 1.0
e 63 152 1.0
e 63 197 26.0
e 64 303 1.0
e 64 485 29.0
e 65 81 24.0
e 65 593 25.0
e 65 5 45.0
e 65 157 35.0
e 65 180 12.0
e 65 240 3.0
e 65 393 16.0
e 65 402 21.0
e 65 498 8.0
e 66 161 2.0
e 66 455 1.0
e 67 424 1.0
e 67 347 1.0
e 68 194 2.0
e 68 202 2.0
e 69 488 1.0
e 69 634 2.0
e 70 410 1.0
e 70 560 2.0
e 71 509 2.0
e 71 489 1.0
e 72 534 4.0
e 72 327 2.0
e 73 593 48.0
e 73 466 1.0
e 74 589 28.0
e 74 329 1.0
e 75 94 45.0
e 75 634 7.0
e 75 449 4.0
e 75 240 12.0
e 76 83 1.0
e 76 375 2.0
e 77 185 1.0
e 77 328 3.0
e 78 407 1.0
e 78 436 2.0
e 79 317 1.0
e 79 346 1.0
e 80 410 1.0
e 80 235 1.0
e 81 262 2.0
e 81 166 1.0
e 82 167 1.0
e 82 411 1.0
e 83 607 1.0
e 83 615 1.0
e 84 377 1.0
e 84 225 1.0
e 85 635 23.0
e 85 50 40.0
e 85 128 47.0
e 85 449 11.0
e 85 464 38.0
e 85 25 22.0
e 86 108 1.0
e 86 27 1.0
e 87 423 45.0
e 87 365 5.0
e 88 326 5.0
e 88 238 1.0
e 89 448 2.0
e 89 585 1.0
e 90 480 2.0
e 90 171 1.0
e 91 463 1.0
e 91 524 1.0
e 92 404 7.0
e 92 262 44.0
e 92 240 46.0
e 92 199 4.0
e 92 402 24.0
e 92 393 14.0
e 93 628 33.0
e 93 182 12.0
e 93 464 45.0
e 93 157 27.0
e 93 393 42.0
e 93 602 20.0
e 93 331 42.0
e 93 402 42.0
e 93 527 29.0
e 94 283 1.0
e 94 238 1.0
e 95 586 20.0
e 95 277 1.0
e 96 29 1.0
e 96 505 2.0
e 97 441 1.0
e 97 15 30.0
e 98 633 5.0
e 98 556 22.0
e 98 15 23.0
e 98 240 10.0
e 98 111 21.0
e 98 252 42.0
e 98 38 19.0
e 98 589 10.0
e 98 197 30.0
e 99 320 1.0
e 99 241 3.0
e 100 13 1.0
e 100 572 1.0
e 101 243 30.0
e 101 404 48.0
e 101 402 44.0
e 101 323 13.0
e 101 527 2.0
e 101 498 21.0
e 101 554 2.0
e 102 575 1.0
e 102 545 3.0
e 103 355 1.0
e 103 318 1.0
e 104 619 1.0
e 104 306 5.0
e 105 72 2.0
e 105 489 1.0
e 106 49 1.0
e 106 482 1.0
e 107 314 35.0
e 107 334 17.0
e 107 358 32.0
e 107 51 1.0
e 107 275 23.0
e 107 92 1.0
e 107 7 10.0
e 108 493 2.0
e 108 567 1.0
e 109 156 2.0
e 109 139 3.0
e 110 604 1.0
e 110 222 1.0
e 111 373 5.0
e 111 142 37.0
e 111 449 10.0
e 111 358 20.0
e 111 631 39.0
e 111 60 1.0
e 111 65 47.0
e 112 495 1.0
e 112 67 3.0
e 113 9 2.0
e 113 33 2.0
e 114 363 2.0
e 114 251 1.0
e 115 8 1.0
e 115 289 35.0
e 116 185 1.0
e 116 340 27.0
e 117 338 1.0
e 117 568 1.0
e 118 570 33.0
e 118 173 47.0
e 118 309 17.0
e 118 240 13.0
e 118 620 47.0
e 118 417 13.0
e 118 589 25.0
e 118 625 4.0
e 119 386 1.0
e 119 222 1.0
e 120 351 2.0
e 120 397 2.0
e 121 430 1.0
e 121 164 28.0
e 122 317 1.0
e 122 392 1.0
e 123 82 1.0
e 123 187 2.0
e 124 349 1.0
e 124 174 3.0
e 125 123 1.0
e 125 86 1.0
e 126 27 1.0
e 126 345 2.0
e 127 81 1.0
e 127 532 1.0
e 128 262 35.0
e 128 491 23.0
e 128 358 44.0
e 128 343 12.0
e 128 199 11.0
e 128 115 24.0
e 128 289 4.0
e 129 285 1.0
e 129 199 5.0
e 130 275 25.0
e 130 569 1.0
e 131 19 1.0
e 131 320 1.0
e 132 366 1.0
e 132 630 2.0
e 133 629 2.0
e 133 420 35.0
e 134 273 1.0
e 134 604 2.0
e 135 537 1.0
e 135 173 2.0
e 136 475 1.0
e 136 497 1.0
e 137 97 1.0
e 137 354 2.0
e 138 32 1.0
e 138 229 1.0
e 139 426 1.0
e 139 146 1.0
e 140 324 1.0
e 140 386 2.0
e 141 443 1.0
e 141 114 2.0
e 142 444 13.0
e 142 119 4.0
e 142 485 23.0
e 142 512 48.0
e 142 393 35.0
e 142 128 21.0
e 142 240 11.0
e 143 285 1.0
e 143 191 1.0
e 144 107 28.0
e 144 267 2.0
e 145 376 1.0
e 145 215 2.0
e 146 160 1.0
e 146 413 1.0
e 147 478 33.0
e 147 203 3.0
e 148 584 1.0
e 148 274 1.0
e 149 352 2.0
e 149 423 28.0
e 150 417 41.0
e 150 73 1.0
e 151 142 17.0
e 151 419 1.0
e 152 575 2.0
e 152 564 2.0
e 153 254 2.0
e 153 461 48.0
e 153 449 7.0
e 153 420 45.0
e 153 402 14.0
e 153 620 29.0
e 153 101 7.0
e 153 199 33.0
e 154 511 1.0
e 154 344 2.0
e 155 625 20.0
e 155 293 1.0
e 156 489 1.0
e 156 527 9.0
e 157 390 23.0
e 157 121 17.0
e 157 432 48.0
e 157 252 31.0
e 157 142 35.0
e 157 98 32.0
e 158 585 3.0
e 158 601 2.0
e 158 149 13.0
e 158 586 24.0
e 158 625 23.0
e 158 275 35.0
e 158 402 4.0
e 158 406 42.0
e 159 210 2.0
e 159 388 1.0
e 160 35 1.0
e 160 458 1.0
e 161 611 1.0
e 161 378 5.0
e 162 571 2.0
e 162 256 1.0
e 163 589 21.0
e 163 92 48.0
e 164 465 12.0
e 164 217 2.0
e 164 620 10.0
e 164 464 1.0
e 164 402 29.0
e 164 485 41.0
e 165 532 2.0
e 165 96 3.0
e 166 620 37.0
e 166 360 1.0
e 167 448 2.0
e 167 109 1.0
e 168 47 5.0
e 168 23 1.0
e 169 288 2.0
e 169 384 1.0
e 170 588 3.0
e 170 625 11.0
e 171 495 1.0
e 171 135 1.0
e 172 70 1.0
e 172 426 2.0
e 173 502 2.0
e 173 6 1.0
e 174 243 1.0
e 174 292 5.0
e 175 285 1.0
e 175 294 2.0
e 176 124 1.0
e 176 533 1.0
e 177 321 4.0
e 177 513 1.0
e 178 629 1.0
e 178 253 1.0
e 179 597 1.0
e 179 68 1.0
e 180 429 25.0
e 180 632 30.0
e 180 309 44.0
e 180 485 12.0
e 180 75 30.0
e 181 296 1.0
e 181 435 1.0
e 182 496 34.0
e 182 615 29.0
e 182 240 29.0
e 182 358 33.0
e 182 252 19.0
e 182 85 11.0
e 183 333 2.0
e 183 519 1.0
e 184 383 4.0
e 184 549 1.0
e 185 131 1.0
e 185 555 46.0
e 186 130 1.0
e 186 408 1.0
e 187 75 23.0
e 187 534 1.0
e 188 56 1.0
e 188 273 2.0
e 189 123 3.0
e 189 451 2.0
e 190 446 1.0
e 190 427 2.0
e 191 11 1.0
e 191 109 2.0
e 192 428 2.0
e 192 388 1.0
e 193 43 1.0
e 193 370 1.0
e 194 341 1.0
e 194 412 1.0
e 195 230 1.0
e 195 635 1.0
e 196 37 1.0
e 196 35 1.0
e 197 218 18.0
e 197 458 21.0
e 198 178 2.0
e 198 506 2.0
e 199 6 9.0
e 199 455 10.0
e 199 358 34.0
e 199 544 16.0
e 200 305 2.0
e 200 99 1.0
e 201 272 1.0
e 201 97 1.0
e 202 285 1.0
e 202 628 1.0
e 203 340 14.0
e 203 3 1.0
e 204 574 1.0
e 204 160 1.0
e 205 524 2.0
e 205 180 18.0
e 206 575 1.0
e 206 185 1.0
e 207 543 1.0
e 207 333 1.0
e 208 236 13.0
e 208 37 32.0
e 208 107 2.0
e 208 252 2.0
e 208 620 43.0
e 208 593 39.0
e 209 213 1.0
e 209 251 1.0
e 210 219 1.0
e 210 278 2.0
e 211 637 1.0
e 211 590 1.0
e 212 532 2.0
e 212 286 1.0
e 213 358 20.0
e 213 374 1.0
e 214 16 1.0
e 214 425 1.0
e 215 474 1.0
e 215 239 2.0
e 216 225 1.0
e 216 60 20.0
e 217 512 16.0
e 217 262 1.0
e 218 419 1.0
e 218 431 1.0
e 219 94 1.0
e 219 52 2.0
e 220 506 1.0
e 220 469 1.0
e 221 610 2.0
e 221 498 12.0
e 222 337 1.0
e 222 460 1.0
e 223 52 1.0
e 223 246 2.0
e 224 520 1.0
e 224 184 4.0
e 225 298 1.0
e 225 183 2.0
e 226 51 27.0
e 226 541 1.0
e 227 87 4.0
e 227 163 1.0
e 228 139 3.0
e 228 303 2.0
e 229 444 1.0
e 229 236 1.0
e 230 584 2.0
e 230 252 46.0
e 231 311 31.0
e 231 447 1.0
e 232 288 2.0
e 232 150 2.0
e 233 525 1.0
e 233 214 1.0
e 234 368 2.0
e 234 498 11.0
e 235 378 1.0
e 235 497 1.0
e 236 275 28.0
e 236 433 1.0
e 237 376 2.0
e 237 444 1.0
e 238 54 1.0
e 238 579 1.0
e 239 542 2.0
e 239 175 1.0
e 240 584 30.0
e 240 134 35.0
e 241 543 1.0
e 242 218 2.0
e 242 391 1.0
e 243 139 1.0
e 243 193 1.0
e 244 228 1.0
e 244 372 1.0
e 245 321 5.0
e 245 510 2.0
e 246 33 1.0
e 246 221 1.0
e 247 387 1.0
e 247 510 1.0
e 248 306 2.0
e 248 176 2.0
e 249 487 2.0
e 249 134 1.0
e 250 34 1.0
e 250 490 1.0
e 251 535 1.0
e 251 296 1.0
e 252 571 23.0
e 252 590 44.0
e 253 430 1.0
e 253 75 2.0
e 254 432 34.0
e 254 385 1.0
e 255 97 48.0
e 255 572 45.0
e 255 199 16.0
e 255 423 7.0
e 255 470 41.0
e 255 521 5.0
e 255 153 43.0
e 256 135 2.0
e 256 2 2.0
e 257 430 1.0
e 257 352 1.0
e 258 532 1.0
e 258 505 2.0
e 259 324 4.0
e 259 550 42.0
e 259 358 15.0
e 259 180 2.0
e 259 340 3.0
e 259 118 23.0
e 259 470 43.0
e 259 93 33.0
e 260 373 1.0
e 260 394 2.0
e 261 506 1.0
e 261 125 1.0
e 262 268 1.0
e 262 315 1.0
e 263 423 2.0
e 263 553 17.0
e 264 499 1.0
e 264 321 3.0
e 265 503 45.0
e 265 632 49.0
e 265 512 47.0
e 265 208 16.0
e 265 111 41.0
e 265 449 35.0
e 265 157 26.0
e 266 78 9.0
e 266 340 3.0
e 266 464 9.0
e 266 252 46.0
e 266 158 25.0
e 266 164 35.0
e 266 255 43.0
e 266 289 37.0
e 266 182 47.0
e 267 397 1.0
e 267 307 1.0
e 268 632 1.0
e 268 475 1.0
e 269 28 1.0
e 269 105 1.0
e 270 200 2.0
e 270 567 2.0
e 271 3 1.0
e 271 55 1.0
e 272 578 1.0
e 272 344 1.0
e 273 525 1.0
e 273 466 1.0
e 274 20 1.0
e 274 151 1.0
e 275 374 16.0
e 275 475 21.0
e 275 259 3.0
e 275 265 1.0
e 275 323 44.0
e 276 253 35.0
e 276 252 46.0
e 276 586 8.0
e 276 620 19.0
e 276 323 10.0
e 276 331 47.0
e 276 266 43.0
e 276 544 23.0
e 277 620 37.0
e 277 485 30.0
e 278 231 1.0
e 278 628 1.0
e 279 559 1.0
e 279 317 1.0
e 280 50 1.0
e 280 246 1.0
e 281 289 22.0
e 281 188 1.0
e 282 72 29.0
e 282 203 7.0
e 282 464 3.0
e 282 275 10.0
e 282 358 2.0
e 282 276 14.0
e 282 289 38.0
e 283 544 13.0
e 283 439 1.0
e 284 630 2.0
e 284 289 17.0
e 285 205 1.0
e 285 207 1.0
e 286 623 2.0
e 286 608 40.0
e 287 345 1.0
e 287 177 1.0
e 288 38 26.0
e 288 477 1.0
e 289 384 48.0
e 289 517 29.0
e 290 561 1.0
e 290 529 1.0
e 291 19 1.0
e 291 197 44.0
e 292 217 16.0
e 292 285 23.0
e 292 470 46.0
e 292 498 17.0
e 292 282 11.0
e 292 289 7.0
e 292 402 30.0
e 293 588 1.0
e 293 333 1.0
e 294 345 1.0
e 294 527 27.0
e 295 69 1.0
e 295 244 1.0
e 296 589 8.0
e 296 268 1.0
e 297 566 3.0
e 297 34 2.0
e 298 241 2.0
e 298 506 1.0
e 299 56 1.0
e 299 472 20.0
e 300 458 1.0
e 300 172 1.0
e 301 426 2.0
e 301 348 2.0
e 302 244 1.0
e 302 43 3.0
e 303 439 2.0
e 303 75 11.0
e 304 232 1.0
e 304 390 2.0
e 305 66 2.0
e 305 262 1.0
e 306 406 2.0
e 306 31 5.0
e 307 113 1.0
e 307 576 2.0
e 308 280 2.0
e 308 532 3.0
e 309 465 45.0
e 309 556 30.0
e 309 512 21.0
e 309 631 7.0
e 309 292 1.0
e 310 106 2.0
e 310 485 38.0
e 311 458 28.0
e 311 135 30.0
e 311 309 19.0
e 311 323 27.0
e 311 340 24.0
e 311 586 29.0
e 311 343 16.0
e 311 406 8.0
e 312 317 1.0
e 312 294 2.0
e 313 399 1.0
e 313 630 1.0
e 314 564 2.0
e 314 285 1.0
e 315 29 1.0
e 315 590 1.0
e 316 82 3.0
e 316 292 44.0
e 317 293 1.0
e 317 497 1.0
e 318 619 1.0
e 318 626 1.0
e 319 282 26.0
e 319 342 1.0
e 320 164 15.0
e 320 38 10.0
e 321 552 2.0
e 321 112 5.0
e 322 219 1.0
e 322 506 2.0
e 323 36 45.0
e 323 143 47.0
e 323 340 27.0
e 323 343 37.0
e 324 76 3.0
e 324 224 1.0
e 325 265 21.0
e 325 154 4.0
e 326 125 2.0
e 326 563 1.0
e 327 341 1.0
e 327 513 1.0
e 328 499 1.0
e 328 271 1.0
e 329 159 1.0
e 329 145 1.0
e 330 156 2.0
e 330 335 1.0
e 331 32 3.0
e 331 153 12.0
e 332 497 1.0
e 332 454 1.0
e 333 72 5.0
e 333 361 1.0
e 334 120 2.0
e 334 401 2.0
e 335 228 1.0
e 335 435 1.0
e 336 301 2.0
e 336 343 33.0
e 337 366 1.0
e 337 154 2.0
e 338 148 2.0
e 338 226 1.0
e 339 382 2.0
e 339 303 1.0
e 340 499 13.0
e 340 29 35.0
e 340 464 41.0
e 341 36 2.0
e 341 59 2.0
e 342 424 1.0
e 342 523 1.0
e 343 598 15.0
e 343 587 4.0
e 343 406 14.0
e 343 340 11.0
e 344 614 1.0
e 344 233 1.0
e 345 582 2.0
e 345 1 1.0
e 346 550 1.0
e 346 283 1.0
e 347 234 1.0
e 347 506 2.0
e 348 244 2.0
e 348 187 2.0
e 349 268 1.0
e 349 399 1.0
e 350 257 1.0
e 350 2 2.0
e 351 426 1.0
e 351 615 1.0
e 352 254 1.0
e 352 610 1.0
e 353 499 2.0
e 353 319 1.0
e 354 44 1.0
e 354 312 1.0
e 355 441 1.0
e 355 238 1.0
e 356 620 35.0
e 356 18 2.0
e 357 1 1.0
e 357 302 1.0
e 358 38 18.0
e 358 123 47.0
e 359 525 1.0
e 359 208 15.0
e 360 535 2.0
e 360 420 36.0
e 361 302 1.0
e 361 626 1.0
e 362 447 1.0
e 362 269 1.0
e 363 592 1.0
e 363 246 3.0
e 364 446 1.0
e 364 392 1.0
e 365 375 2.0
e 365 207 1.0
e 366 140 1.0
e 366 447 1.0
e 367 127 2.0
e 367 48 2.0
e 368 287 1.0
e 368 379 2.0
e 369 426 1.0
e 369 424 1.0
e 370 108 2.0
e 370 614 1.0
e 371 529 1.0
e 371 151 2.0
e 372 206 1.0
e 372 481 1.0
e 373 585 1.0
e 373 469 2.0
e 374 449 15.0
e 374 493 2.0
e 375 332 2.0
e 375 539 1.0
e 376 34 1.0
e 376 256 3.0
e 377 610 1.0
e 377 530 2.0
e 378 16 1.0
e 378 282 5.0
e 379 603 4.0
e 379 555 20.0
e 380 297 1.0
e 380 538 2.0
e 381 136 1.0
e 381 356 2.0
e 382 172 1.0
e 382 577 1.0
e 383 503 1.0
e 383 632 1.0
e 384 243 1.0
e 384 609 1.0
e 385 346 1.0
e 385 618 1.0
e 386 133 1.0
e 386 276 22.0
e 387 11 1.0
e 387 613 1.0
e 388 458 1.0
e 388 204 1.0
e 389 232 1.0
e 389 157 5.0
e 390 268 2.0
e 390 218 2.0
e 391 588 1.0
e 391 134 2.0
e 392 381 2.0
e 392 143 1.0
e 393 198 9.0
e 393 180 20.0
e 394 140 1.0
e 394 456 1.0
e 395 407 1.0
e 395 517 1.0
e 396 613 1.0
e 396 618 1.0
e 397 249 2.0
e 397 327 1.0
e 398 95 1.0
e 398 491 2.0
e 399 479 1.0
e 399 31 2.0
e 400 391 1.0
e 400 0 2.0
e 401 521 28.0
e 401 425 1.0
e 402 439 27.0
e 402 633 9.0
e 403 85 7.0
e 403 377 2.0
e 404 197 38.0
e 404 507 1.0
e 405 124 2.0
e 405 167 1.0
e 406 63 15.0
e 406 77 13.0
e 406 586 40.0
e 406 323 37.0
e 406 417 36.0
e 407 332 1.0
e 407 130 2.0
e 408 3 3.0
e 408 386 2.0
e 409 58 1.0
e 409 457 1.0
e 410 350 1.0
e 410 396 1.0
e 411 533 1.0
e 411 131 1.0
e 412 24 2.0
e 412 15 30.0
e 413 391 1.0
e 413 183 1.0
e 414 143 2.0
e 414 428 1.0
e 415 369 1.0
e 415 580 1.0
e 416 515 1.0
e 416 405 1.0
e 417 637 24.0
e 417 122 42.0
e 418 222 2.0
e 418 9 1.0
e 419 524 1.0
e 419 72 3.0
e 420 46 14.0
e 420 535 49.0
e 420 586 27.0
e 420 470 33.0
e 420 311 38.0
e 421 491 1.0
e 421 143 2.0
e 422 170 3.0
e 422 207 3.0
e 423 615 36.0
e 423 200 11.0
e 423 343 44.0
e 423 406 31.0
e 424 521 2.0
e 424 91 2.0
e 425 450 1.0
e 425 236 1.0
e 426 92 28.0
e 426 551 2.0
e 427 81 1.0
e 427 433 1.0
e 428 599 3.0
e 428 499 1.0
e 429 48 2.0
e 429 423 32.0
e 430 480 1.0
e 430 454 1.0
e 431 81 2.0
e 431 549 11.0
e 432 360 42.0
e 432 174 20.0
e 432 470 45.0
e 432 472 15.0
e 432 438 32.0
e 432 420 35.0
e 433 376 1.0
e 433 420 23.0
e 434 63 1.0
e 434 343 47.0
e 435 445 3.0
e 435 529 1.0
e 436 235 1.0
e 436 608 5.0
e 437 534 1.0
e 437 595 1.0
e 438 55 32.0
e 438 354 31.0
e 438 423 19.0
e 438 544 14.0
e 438 470 1.0
e 438 498 39.0
e 438 449 34.0
e 439 519 1.0
e 439 518 1.0
e 440 374 1.0
e 440 139 1.0
e 441 284 1.0
e 441 417 23.0
e 442 62 1.0
e 442 435 1.0
e 443 570 2.0
e 443 537 1.0
e 444 269 1.0
e 444 10 2.0
e 445 151 2.0
e 445 103 1.0
e 446 549 5.0
e 446 50 1.0
e 447 285 2.0
e 447 546 1.0
e 448 438 40.0
e 448 230 1.0
e 449 95 46.0
e 449 475 16.0
e 450 574 1.0
e 450 330 1.0
e 451 80 3.0
e 451 136 2.0
e 452 469 2.0
e 452 458 1.0
e 453 74 1.0
e 453 636 2.0
e 454 257 1.0
e 454 310 1.0
e 455 53 1.0
e 455 129 1.0
e 456 288 1.0
e 456 198 1.0
e 457 427 1.0
e 457 610 1.0
e 458 208 44.0
e 458 164 15.0
e 459 472 3.0
e 459 272 1.0
e 460 251 1.0
e 460 64 1.0
e 461 475 1.0
e 461 353 1.0
e 462 75 5.0
e 462 441 1.0
e 463 613 2.0
e 463 587 1.0
e 464 616 43.0
e 464 367 14.0
e 465 255 20.0
e 465 501 1.0
e 466 629 2.0
e 466 389 4.0
e 467 525 1.0
e 467 71 1.0
e 468 170 1.0
e 468 237 2.0
e 469 612 1.0
e 469 197 34.0
e 470 219 24.0
e 470 331 35.0
e 471 363 1.0
e 471 345 1.0
e 472 615 41.0
e 472 88 4.0
e 472 438 7.0
e 472 476 8.0
e 472 512 39.0
e 472 478 44.0
e 473 203 1.0
e 473 150 1.0
e 474 81 1.0
e 474 216 1.0
e 475 145 1.0
e 475 386 1.0
e 476 464 9.0
e 476 124 16.0
e 476 478 36.0
e 476 432 31.0
e 476 485 46.0
e 476 589 30.0
e 477 497 1.0
e 477 496 1.0
e 478 630 31.0
e 478 329 15.0
e 478 602 33.0
e 478 485 40.0
e 478 549 22.0
e 478 498 48.0
e 479 462 1.0
e 479 434 1.0
e 480 446 2.0
e 480 71 1.0
e 481 227 1.0
e 481 428 1.0
e 482 140 1.0
e 482 541 1.0
e 483 492 2.0
e 483 243 1.0
e 484 48 1.0
e 484 62 1.0
e 485 447 19.0
e 485 417 32.0
e 486 341 1.0
e 486 99 1.0
e 487 338 1.0
e 487 523 1.0
e 488 23 1.0
e 488 473 1.0
e 489 477 1.0
e 489 365 2.0
e 490 504 1.0
e 490 217 1.0
e 491 17 1.0
e 491 124 1.0
e 492 623 1.0
e 492 283 1.0
e 493 219 2.0
e 493 476 48.0
e 494 85 9.0
e 494 126 1.0
e 495 20 1.0
e 495 96 1.0
e 496 374 1.0
e 496 315 2.0
e 497 592 1.0
e 497 150 2.0
e 498 417 23.0
e 498 515 7.0
e 499 261 1.0
e 499 565 1.0
e 500 231 1.0
e 500 56 1.0
e 501 73 1.0
e 501 578 1.0
e 502 198 1.0
e 502 44 1.0
e 503 459 2.0
e 503 412 1.0
e 504 468 1.0
e 504 331 39.0
e 505 280 1.0
e 505 584 2.0
e 506 476 27.0
e 506 54 1.0
e 507 321 2.0
e 507 405 1.0
e 508 192 1.0
e 508 505 2.0
e 509 150 1.0
e 509 463 1.0
e 510 306 1.0
e 510 599 1.0
e 511 243 3.0
e 511 44 1.0
e 512 210 49.0
e 512 492 23.0
e 513 350 3.0
e 513 289 14.0
e 514 286 1.0
e 514 175 3.0
e 515 336 2.0
e 515 331 31.0
e 516 611 1.0
e 516 13 1.0
e 517 165 1.0
e 517 52 1.0
e 518 331 20.0
e 518 376 1.0
e 519 317 1.0
e 519 466 1.0
e 520 578 1.0
e 520 57 1.0
e 521 215 25.0
e 521 495 48.0
e 521 472 33.0
e 521 476 20.0
e 521 478 19.0
e 522 236 1.0
e 522 107 14.0
e 523 178 1.0
e 523 268 1.0
e 524 4 1.0
e 524 151 2.0
e 525 166 1.0
e 525 541 1.0
e 526 624 1.0
e 526 509 1.0
e 527 321 39.0
e 527 488 35.0
e 527 498 33.0
e 527 512 25.0
e 528 411 1.0
e 528 520 1.0
e 529 168 1.0
e 529 628 1.0
e 530 309 49.0
e 530 617 1.0
e 531 379 1.0
e 531 450 1.0
e 532 141 1.0
e 532 469 1.0
e 533 539 1.0
e 533 172 2.0
e 534 39 1.0
e 534 293 2.0
e 535 271 2.0
e 535 227 2.0
e 536 226 2.0
e 536 328 1.0
e 537 495 2.0
e 537 366 1.0
e 538 551 1.0
e 538 432 16.0
e 539 619 1.0
e 539 290 1.0
e 540 636 1.0
e 540 347 1.0
e 541 357 1.0
e 541 325 3.0
e 542 532 1.0
e 542 359 1.0
e 543 389 3.0
e 543 542 1.0
e 544 621 46.0
e 544 533 14.0
e 544 521 13.0
e 544 527 14.0
e 544 549 13.0
e 545 278 1.0
e 545 61 2.0
e 546 205 2.0
e 546 560 1.0
e 547 419 1.0
e 547 234 1.0
e 548 167 1.0
e 548 215 2.0
e 549 193 36.0
e 549 73 20.0
e 550 103 1.0
e 550 291 2.0
e 551 236 1.0
e 551 607 1.0
e 552 185 1.0
e 552 215 1.0
e 553 185 39.0
e 553 37 33.0
e 553 544 19.0
e 553 549 22.0
e 553 554 28.0
e 553 555 21.0
e 554 239 39.0
e 554 158 29.0
e 554 631 1.0
e 554 555 25.0
e 554 602 31.0
e 554 558 22.0
e 554 589 9.0
e 555 201 24.0
e 555 176 13.0
e 555 558 43.0
e 555 589 35.0
e 555 593 10.0
e 556 78 1.0
e 556 623 2.0
e 557 205 1.0
e 557 577 2.0
e 558 479 37.0
e 558 291 10.0
e 558 553 3.0
e 558 593 14.0
e 558 602 6.0
e 558 608 3.0
e 558 621 21.0
e 559 630 2.0
e 559 302 2.0
e 560 185 1.0
e 560 470 43.0
e 561 298 1.0
e 561 515 1.0
e 562 70 1.0
e 562 170 3.0
e 563 146 1.0
e 564 139 1.0
e 564 137 1.0
e 565 49 1.0
e 565 307 2.0
e 566 587 1.0
e 566 261 1.0
e 567 70 1.0
e 567 224 2.0
e 568 19 1.0
e 568 194 1.0
e 569 39 1.0
e 569 327 2.0
e 570 131 1.0
e 570 29 1.0
e 571 486 2.0
e 571 500 2.0
e 572 22 2.0
e 572 587 1.0
e 573 110 2.0
e 573 638 1.0
e 574 563 1.0
e 574 165 2.0
e 575 520 1.0
e 575 522 1.0
e 576 504 2.0
e 576 163 1.0
e 577 366 1.0
e 577 56 1.0
e 578 559 1.0
e 578 84 1.0
e 579 27 1.0
e 579 356 2.0
e 580 370 1.0
e 580 24 1.0
e 581 568 1.0
e 581 429 1.0
e 582 212 1.0
e 582 227 1.0
e 583 449 49.0
e 583 118 33.0
e 584 534 1.0
e 584 467 2.0
e 585 231 1.0
e 585 400 1.0
e 586 515 18.0
e 586 332 11.0
e 587 103 2.0
e 587 623 1.0
e 588 403 1.0
e 588 330 2.0
e 589 612 1.0
e 589 602 20.0
e 590 346 1.0
e 590 549 17.0
e 591 575 1.0
e 591 451 1.0
e 592 235 1.0
e 592 594 2.0
e 593 181 36.0
e 593 19 14.0
e 593 554 32.0
e 593 608 21.0
e 594 200 1.0
e 594 106 1.0
e 595 418 2.0
e 595 16 1.0
e 596 458 1.0
e 596 256 1.0
e 597 161 1.0
e 597 424 1.0
e 598 387 4.0
e 598 168 5.0
e 599 421 1.0
e 599 45 1.0
e 600 188 1.0
e 600 447 1.0
e 601 35 1.0
e 601 549 46.0
e 602 201 25.0
e 602 319 15.0
e 603 225 2.0
e 603 486 2.0
e 604 6 1.0
e 604 584 2.0
e 605 489 1.0
e 605 307 2.0
e 606 491 1.0
e 606 505 1.0
e 607 38 47.0
e 607 212 1.0
e 608 254 38.0
e 608 371 46.0
e 608 555 20.0
e 608 621 13.0
e 608 625 19.0
e 609 637 1.0
e 609 221 1.0
e 610 621 25.0
e 610 230 1.0
e 611 390 1.0
e 611 55 1.0
e 612 106 3.0
e 612 467 1.0
e 613 56 1.0
e 613 131 1.0
e 614 306 6.0
e 614 13 3.0
e 615 568 1.0
e 615 326 1.0
e 616 73 1.0
e 616 484 1.0
e 617 621 44.0
e 617 202 1.0
e 618 95 1.0
e 618 40 1.0
e 619 546 1.0
e 619 228 1.0
e 620 101 46.0
e 620 512 13.0
e 621 44 36.0
e 621 514 18.0
e 621 593 45.0
e 621 625 14.0
e 622 312 1.0
e 622 293 1.0
e 623 174 1.0
e 623 521 5.0
e 624 577 1.0
e 624 387 2.0
e 625 83 25.0
e 625 166 8.0
e 625 558 19.0
e 626 504 1.0
e 626 47 3.0
e 627 214 1.0
e 627 295 1.0
e 628 433 1.0
e 628 71 2.0
e 629 101 30.0
e 629 40 1.0
e 630 545 2.0
e 630 540 1.0
e 631 371 7.0
e 631 114 13.0
e 631 621 23.0
e 631 608 21.0
e 632 19 2.0
e 632 197 46.0
e 633 34 1.0
e 633 543 1.0
e 634 362 1.0
e 634 35 2.0
e 635 97 2.0
e 635 297 3.0
e 636 286 1.0
e 636 269 1.0
e 637 62 1.0
e 637 263 1.0
e 638 248 1.0
e 638 54 1.0
e 639 315 1.0
e 639 190 3.0
